NAME : tsp25_17.183.tour
COMMENT : Length = 183
COMMENT : Found by LKH [Keld Helsgaun]
TYPE : TOUR
DIMENSION : 25
TOUR_SECTION
1
5
6
24
14
2
9
12
16
11
22
18
4
7
20
21
8
17
25
13
3
15
23
19
10
-1
EOF
